Geographic Exponential Decay
80 209 177 235 295 5 129 37 48 70 145 140 217 229 161 6 28 12 74 111 183 306 99 204 208 35 176 142 137 78 182 219 236 281 244 192 73 298 172 239 243 83 222 62 312 65 184 155 134 107 49 105 109 216 41 85 44 237 119 249 47 292 10 303 318 13 75 234 171 271 56 181 314 190 54 223 87 257 274 212 130
p edge 320 320
e 0 103 2.0
e 1 109 96.0
e 1 0 2.0
e 2 6 21.0
e 2 1 1.0
e 3 265 1.0
e 3 2 1.0
e 4 82 18.0
e 4 3 23.0
e 5 212 95.0
e 5 295 71.0
e 5 223 96.0
e 5 4 90.0
e 6 218 5.0
e 6 310 35.0
e 7 318 54.0
e 7 5 94.0
e 8 75 55.0
e 8 7 1.0
e 9 233 2.0
e 9 8 5.0
e 10 76 44.0
e 10 136 88.0
e 10 159 64.0
e 10 9 52.0
e 11 104 10.0
e 11 10 15.0
e 12 208 90.0
e 12 114 37.0
e 12 86 2.0
e 12 11 60.0
e 13 235 20.0
e 13 98 82.0
e 13 259 88.0
e 14 115 2.0
e 14 12 8.0
e 15 264 4.0
e 15 14 5.0
e 16 315 11.0
e 16 15 2.0
e 17 143 2.0
e 17 16 2.0
e 18 308 1.0
e 18 17 2.0
e 19 201 2.0
e 19 18 3.0
e 20 157 4.0
e 20 19 5.0
e 21 90 10.0
e 21 20 7.0
e 22 23 9.0
e 22 21 19.0
e 24 91 3.0
e 24 22 23.0
e 25 266 3.0
e 25 24 4.0
e 26 87 42.0
e 27 70 73.0
e 27 25 5.0
e 28 254 47.0
e 28 29 98.0
e 28 30 9.0
e 28 27 96.0
e 31 116 1.0
e 31 28 60.0
e 32 168 2.0
e 32 31 1.0
e 33 123 1.0
e 33 32 2.0
e 34 173 4.0
e 34 33 3.0
e 35 69 16.0
e 35 244 87.0
e 35 256 71.0
e 36 273 1.0
e 36 34 4.0
e 37 55 13.0
e 37 277 50.0
e 37 195 5.0
e 37 36 55.0
e 38 43 4.0
e 38 37 48.0
e 39 177 51.0
e 39 38 2.0
e 40 283 2.0
e 40 39 5.0
e 41 47 89.0
e 41 127 82.0
e 41 242 65.0
e 42 44 98.0
e 42 40 3.0
e 44 276 72.0
e 44 249 13.0
e 45 190 92.0
e 45 42 4.0
e 46 262 2.0
e 46 45 1.0
e 47 158 91.0
e 47 208 27.0
e 48 210 53.0
e 48 105 43.0
e 48 255 51.0
e 48 46 50.0
e 49 128 23.0
e 49 50 54.0
e 49 236 57.0
e 51 52 11.0
e 51 48 31.0
e 53 54 62.0
e 54 119 100.0
e 54 294 81.0
e 56 57 58.0
e 56 58 68.0
e 56 206 87.0
e 56 51 47.0
e 59 99 83.0
e 59 56 31.0
e 60 61 5.0
e 60 59 4.0
e 62 250 16.0
e 62 63 84.0
e 62 117 48.0
e 62 60 73.0
e 64 249 60.0
e 65 66 72.0
e 65 67 83.0
e 65 316 64.0
e 65 62 76.0
e 68 244 60.0
e 68 113 17.0
e 70 191 59.0
e 70 284 48.0
e 71 165 8.0
e 71 65 57.0
e 72 214 3.0
e 72 71 5.0
e 73 74 18.0
e 73 77 13.0
e 73 78 42.0
e 74 126 78.0
e 74 244 48.0
e 75 312 83.0
e 75 77 72.0
e 78 142 96.0
e 78 92 97.0
e 79 81 3.0
e 79 72 1.0
e 80 228 2.0
e 80 79 1.0
e 83 84 76.0
e 83 296 28.0
e 83 85 100.0
e 83 80 45.0
e 85 225 10.0
e 85 100 7.0
e 87 88 56.0
e 87 216 10.0
e 89 261 13.0
e 89 83 63.0
e 93 253 9.0
e 93 89 3.0
e 94 317 13.0
e 94 93 4.0
e 95 96 1.0
e 95 94 4.0
e 97 301 2.0
e 97 95 2.0
e 99 215 54.0
e 99 193 34.0
e 101 285 2.0
e 101 97 6.0
e 102 241 2.0
e 102 101 3.0
e 105 151 36.0
e 105 146 43.0
e 106 198 1.0
e 106 102 1.0
e 107 108 42.0
e 107 192 25.0
e 107 179 85.0
e 107 106 8.0
e 109 147 52.0
e 109 110 3.0
e 111 211 98.0
e 111 125 44.0
e 111 112 59.0
e 111 107 3.0
e 112 278 29.0
e 118 197 5.0
e 118 111 70.0
e 119 295 23.0
e 119 120 35.0
e 121 122 47.0
e 122 223 30.0
e 124 279 6.0
e 124 118 5.0
e 129 293 9.0
e 129 260 49.0
e 129 292 94.0
e 130 131 43.0
e 130 132 7.0
e 130 299 51.0
e 130 124 96.0
e 133 148 2.0
e 133 130 41.0
e 134 135 86.0
e 134 307 40.0
e 134 217 60.0
e 137 245 52.0
e 137 138 74.0
e 137 236 99.0
e 139 181 79.0
e 139 133 3.0
e 140 141 1.0
e 140 142 97.0
e 140 144 54.0
e 142 145 52.0
e 145 180 42.0
e 145 149 30.0
e 150 160 8.0
e 150 139 2.0
e 152 153 1.0
e 152 150 7.0
e 154 155 81.0
e 154 152 1.0
e 155 309 46.0
e 155 156 20.0
e 161 162 6.0
e 161 235 23.0
e 161 163 62.0
e 164 169 12.0
e 164 154 5.0
e 166 167 17.0
e 166 164 1.0
e 170 171 81.0
e 170 166 17.0
e 171 172 85.0
e 171 186 24.0
e 172 174 57.0
e 172 175 9.0
e 176 177 91.0
e 176 178 90.0
e 176 257 38.0
e 177 281 91.0
e 181 199 87.0
e 181 313 5.0
e 182 236 94.0
e 182 183 88.0
e 182 184 85.0
e 183 314 16.0
e 183 269 52.0
e 184 185 15.0
e 184 187 89.0
e 188 267 2.0
e 188 170 1.0
e 189 190 82.0
e 190 194 11.0
e 192 229 66.0
e 192 196 9.0
e 200 202 1.0
e 200 188 1.0
e 203 204 48.0
e 203 200 1.0
e 204 205 13.0
e 204 239 84.0
e 207 208 78.0
e 209 212 25.0
e 209 213 17.0
e 209 246 57.0
e 212 216 8.0
e 216 217 60.0
e 217 219 38.0
e 219 220 81.0
e 219 234 75.0
e 221 222 10.0
e 222 223 62.0
e 222 280 62.0
e 224 286 21.0
e 224 226 41.0
e 224 203 8.0
e 227 229 13.0
e 229 230 58.0
e 231 232 1.0
e 231 224 10.0
e 234 235 50.0
e 234 297 9.0
e 237 243 52.0
e 237 238 6.0
e 237 287 28.0
e 239 240 39.0
e 239 243 85.0
e 243 247 69.0
e 248 249 36.0
e 251 312 24.0
e 252 257 86.0
e 257 258 5.0
e 263 268 1.0
e 263 231 1.0
e 270 271 96.0
e 271 272 72.0
e 271 274 50.0
e 274 275 52.0
e 274 281 56.0
e 281 311 4.0
e 282 288 13.0
e 282 263 22.0
e 289 290 2.0
e 289 282 5.0
e 291 292 34.0
e 292 295 81.0
e 298 300 51.0
e 298 312 76.0
e 298 302 20.0
e 303 304 80.0
e 303 305 59.0
e 303 306 41.0
e 306 314 18.0
e 306 318 96.0
e 314 318 85.0
e 319 289 13.0
